NAME : tsp50_18.218.tour
COMMENT : Length = 218
COMMENT : Found by LKH [Keld Helsgaun]
TYPE : TOUR
DIMENSION : 50
TOUR_SECTION
1
34
37
38
45
50
48
41
5
22
31
27
43
28
17
13
2
10
18
24
39
44
8
46
29
19
30
21
11
25
15
3
47
20
35
42
16
26
12
14
7
6
23
40
32
4
49
33
9
36
-1
EOF
